% plconverted_random_s10_a15_c50.lp
% #const maxexpans=0.  clingo --outf=1 random_s10_a15_c50.lp solver.lp > plconverted_random_s10_a15_c50.lp 1

% clingo version 5.6.2
% Reading from random_s10_a15_c50.lp ...
% Solving...
% Answer: 1
%ANSWER
plan(15,up,0). plan(14,left,0). plan(13,up,0). plan(12,down,0). plan(11,stay,0). plan(10,stay,0). plan(9,down,0). plan(8,down,0). plan(7,right,0). plan(6,up,0). plan(5,right,0). plan(4,stay,0). plan(3,up,0). plan(2,right,0). plan(1,left,0). plan(1,right,1). plan(2,right,1). plan(3,right,1). plan(4,right,1). plan(5,right,1). plan(6,down,1). plan(7,right,1). plan(8,right,1). plan(9,up,1). plan(10,down,1). plan(11,stay,1). plan(12,up,1). plan(13,right,1). plan(14,down,1). plan(15,up,1). plan(15,right,2). plan(14,down,2). plan(13,right,2). plan(12,down,2). plan(11,up,2). plan(10,right,2). plan(9,right,2). plan(8,right,2). plan(7,right,2). plan(6,up,2). plan(5,down,2). plan(4,down,2). plan(3,right,2). plan(2,up,2). plan(1,stay,2). plan(1,stay,3). plan(2,stay,3). plan(3,up,3). plan(4,up,3). plan(5,down,3). plan(6,left,3). plan(7,down,3). plan(8,right,3). plan(9,stay,3). plan(10,right,3). plan(11,up,3). plan(12,down,3). plan(13,down,3). plan(14,stay,3). plan(15,stay,3). plan(15,left,4). plan(14,up,4). plan(13,up,4). plan(12,down,4). plan(11,right,4). plan(10,up,4). plan(9,up,4). plan(8,up,4). plan(7,right,4). plan(6,left,4). plan(5,stay,4). plan(4,stay,4). plan(3,right,4). plan(2,stay,4). plan(1,stay,4). plan(1,left,5). plan(2,down,5). plan(3,stay,5). plan(4,left,5). plan(5,right,5). plan(6,down,5). plan(7,right,5). plan(8,down,5). plan(9,stay,5). plan(10,down,5). plan(11,stay,5). plan(12,right,5). plan(13,down,5). plan(14,left,5). plan(15,down,5). plan(15,down,6). plan(14,stay,6). plan(13,right,6). plan(12,right,6). plan(11,left,6). plan(10,down,6). plan(9,down,6). plan(8,down,6). plan(7,right,6). plan(6,left,6). plan(5,up,6). plan(4,right,6). plan(3,left,6). plan(2,down,6). plan(1,down,6). plan(1,down,7). plan(2,down,7). plan(3,down,7). plan(4,stay,7). plan(5,right,7). plan(6,left,7). plan(7,up,7). plan(8,stay,7). plan(9,left,7). plan(10,down,7). plan(11,down,7). plan(12,right,7). plan(13,stay,7). plan(14,left,7). plan(15,stay,7). plan(15,stay,8). plan(14,down,8). plan(13,stay,8). plan(12,up,8). plan(11,down,8). plan(10,stay,8). plan(9,stay,8). plan(8,up,8). plan(7,up,8). plan(6,up,8). plan(5,stay,8). plan(4,down,8). plan(3,left,8). plan(2,right,8). plan(1,down,8). plan(1,right,9). plan(2,right,9). plan(3,right,9). plan(4,right,9). plan(5,right,9). plan(6,up,9). plan(7,right,9). plan(8,up,9). plan(9,right,9). plan(10,stay,9). plan(11,up,9). plan(12,up,9). plan(13,left,9). plan(14,up,9). plan(15,stay,9). plan(15,stay,10). plan(14,up,10). plan(13,up,10). plan(12,right,10). plan(11,down,10). plan(10,stay,10). plan(9,up,10). plan(8,up,10). plan(7,up,10). plan(6,stay,10). plan(5,up,10). plan(4,right,10). plan(3,down,10). plan(2,down,10). plan(1,right,10). plan(1,up,11). plan(2,up,11). plan(3,right,11). plan(4,down,11). plan(5,up,11). plan(6,down,11). plan(7,up,11). plan(8,right,11). plan(9,stay,11). plan(10,stay,11). plan(11,stay,11). plan(12,up,11). plan(13,left,11). plan(14,left,11). plan(15,stay,11). plan(15,stay,12). plan(14,right,12). plan(13,left,12). plan(12,up,12). plan(11,stay,12). plan(10,stay,12). plan(9,right,12). plan(8,stay,12). plan(7,up,12). plan(6,up,12). plan(5,stay,12). plan(4,stay,12). plan(3,stay,12). plan(2,up,12). plan(1,up,12). plan(1,stay,13). plan(2,stay,13). plan(3,right,13). plan(4,right,13). plan(5,right,13). plan(6,right,13). plan(7,left,13). plan(8,up,13). plan(9,right,13). plan(10,up,13). plan(11,up,13). plan(12,up,13). plan(13,down,13). plan(14,left,13). plan(15,stay,13). plan(15,stay,14). plan(14,right,14). plan(13,left,14). plan(12,left,14). plan(11,down,14). plan(10,down,14). plan(9,down,14). plan(8,up,14). plan(7,left,14). plan(6,left,14). plan(5,up,14). plan(4,right,14). plan(3,up,14). plan(2,down,14). plan(1,down,14). plan(1,up,15). plan(2,up,15). plan(3,stay,15). plan(4,stay,15). plan(5,up,15). plan(6,down,15). plan(7,up,15). plan(8,up,15). plan(9,right,15). plan(10,up,15). plan(11,up,15). plan(12,left,15). plan(13,up,15). plan(14,down,15). plan(15,up,15). plan(15,up,16). plan(14,right,16). plan(13,up,16). plan(12,up,16). plan(11,down,16). plan(10,up,16). plan(9,right,16). plan(8,left,16). plan(7,up,16). plan(6,up,16). plan(5,up,16). plan(4,up,16). plan(3,right,16). plan(2,stay,16). plan(1,stay,16). plan(1,down,17). plan(2,down,17). plan(3,stay,17). plan(4,stay,17). plan(5,left,17). plan(6,right,17). plan(7,up,17). plan(8,left,17). plan(9,stay,17). plan(10,up,17). plan(11,up,17). plan(12,up,17). plan(13,up,17). plan(14,right,17). plan(15,right,17). plan(15,right,18). plan(14,left,18). plan(13,up,18). plan(12,up,18). plan(11,up,18). plan(10,down,18). plan(9,up,18). plan(8,up,18). plan(7,right,18). plan(6,left,18). plan(5,left,18). plan(4,right,18). plan(3,right,18). plan(2,left,18). plan(1,down,18). plan(1,down,19). plan(2,right,19). plan(3,down,19). plan(4,right,19). plan(5,right,19). plan(6,down,19). plan(7,stay,19). plan(8,down,19). plan(9,right,19). plan(10,down,19). plan(11,stay,19). plan(12,stay,19). plan(13,stay,19). plan(14,stay,19). plan(15,up,19). plan(15,right,20). plan(14,stay,20). plan(13,down,20). plan(12,stay,20). plan(11,right,20). plan(10,right,20). plan(9,right,20). plan(8,right,20). plan(7,stay,20). plan(6,down,20). plan(5,right,20). plan(4,down,20). plan(3,down,20). plan(2,down,20). plan(1,down,20). plan(1,down,21). plan(2,down,21). plan(3,right,21). plan(4,down,21). plan(5,up,21). plan(6,down,21). plan(7,stay,21). plan(8,right,21). plan(9,down,21). plan(10,stay,21). plan(11,up,21). plan(12,stay,21). plan(13,up,21). plan(14,right,21). plan(15,right,21). plan(15,down,22). plan(14,up,22). plan(13,down,22). plan(12,down,22). plan(11,down,22). plan(10,left,22). plan(9,down,22). plan(8,up,22). plan(7,stay,22). plan(6,down,22). plan(5,up,22). plan(4,right,22). plan(3,right,22). plan(2,up,22). plan(1,stay,22). plan(1,left,23). plan(2,down,23). plan(3,down,23). plan(4,right,23). plan(5,stay,23). plan(6,up,23). plan(7,stay,23). plan(8,stay,23). plan(9,right,23). plan(10,stay,23). plan(11,stay,23). plan(12,up,23). plan(13,up,23). plan(14,right,23). plan(15,down,23). plan(15,right,24). plan(14,stay,24). plan(13,left,24). plan(12,stay,24). plan(11,up,24). plan(10,up,24). plan(9,right,24). plan(8,stay,24). plan(7,stay,24). plan(6,down,24). plan(5,stay,24). plan(4,down,24). plan(3,down,24). plan(2,down,24). plan(1,stay,24). plan(1,down,25). plan(2,left,25). plan(3,down,25). plan(4,down,25). plan(5,stay,25). plan(6,up,25). plan(7,left,25). plan(8,stay,25). plan(9,down,25). plan(10,left,25). plan(11,down,25). plan(12,down,25). plan(13,right,25). plan(14,left,25). plan(15,right,25). plan(15,down,26). plan(14,down,26). plan(13,right,26). plan(12,down,26). plan(11,left,26). plan(10,left,26). plan(9,down,26). plan(8,down,26). plan(7,down,26). plan(6,up,26). plan(5,down,26). plan(4,down,26). plan(3,left,26). plan(2,down,26). plan(1,down,26). plan(1,left,27). plan(2,down,27). plan(3,down,27). plan(4,left,27). plan(5,down,27). plan(6,stay,27). plan(7,left,27). plan(8,left,27). plan(9,down,27). plan(10,stay,27). plan(11,down,27). plan(12,up,27). plan(13,stay,27). plan(14,up,27). plan(15,down,27). plan(15,down,28). plan(14,stay,28). plan(13,left,28). plan(12,down,28). plan(11,up,28). plan(10,up,28). plan(9,left,28). plan(8,left,28). plan(7,left,28). plan(6,down,28). plan(5,left,28). plan(4,down,28). plan(3,down,28). plan(2,left,28). plan(1,left,28). plan(1,left,29). plan(2,left,29). plan(3,left,29). plan(4,down,29). plan(5,right,29). plan(6,down,29). plan(7,down,29). plan(8,up,29). plan(9,down,29). plan(10,stay,29). plan(11,right,29). plan(12,up,29). plan(13,stay,29). plan(14,down,29). plan(15,left,29). plan(15,down,30). plan(14,down,30). plan(13,left,30). plan(12,left,30). plan(11,stay,30). plan(10,down,30). plan(9,down,30). plan(8,up,30). plan(7,left,30). plan(6,up,30). plan(5,stay,30). plan(4,down,30). plan(3,stay,30). plan(2,stay,30). plan(1,stay,30). plan(1,down,31). plan(2,left,31). plan(3,left,31). plan(4,right,31). plan(5,down,31). plan(6,down,31). plan(7,left,31). plan(8,left,31). plan(9,left,31). plan(10,right,31). plan(11,up,31). plan(12,left,31). plan(13,stay,31). plan(14,down,31). plan(15,down,31). plan(15,left,32). plan(14,up,32). plan(13,stay,32). plan(12,down,32). plan(11,up,32). plan(10,left,32). plan(9,left,32). plan(8,left,32). plan(7,up,32). plan(6,up,32). plan(5,down,32). plan(4,left,32). plan(3,left,32). plan(2,up,32). plan(1,stay,32). plan(1,right,33). plan(2,up,33). plan(3,up,33). plan(4,up,33). plan(5,down,33). plan(6,up,33). plan(7,left,33). plan(8,down,33). plan(9,left,33). plan(10,down,33). plan(11,left,33). plan(12,left,33). plan(13,right,33). plan(14,up,33). plan(15,left,33). plan(15,left,34). plan(14,left,34). plan(13,left,34). plan(12,left,34). plan(11,stay,34). plan(10,stay,34). plan(9,up,34). plan(8,left,34). plan(7,left,34). plan(6,up,34). plan(5,up,34). plan(4,left,34). plan(3,up,34). plan(2,up,34). plan(1,up,34). plan(1,right,35). plan(2,down,35). plan(3,down,35). plan(4,right,35). plan(5,up,35). plan(6,left,35). plan(7,down,35). plan(8,left,35). plan(9,left,35). plan(10,left,35). plan(11,stay,35). plan(12,up,35). plan(13,right,35). plan(14,left,35). plan(15,stay,35). plan(15,stay,36). plan(14,down,36). plan(13,right,36). plan(12,left,36). plan(11,stay,36). plan(10,down,36). plan(9,left,36). plan(8,up,36). plan(7,left,36). plan(6,left,36). plan(5,up,36). plan(4,down,36). plan(3,left,36). plan(2,up,36). plan(1,right,36). plan(1,up,37). plan(2,left,37). plan(3,left,37). plan(4,right,37). plan(5,up,37). plan(6,down,37). plan(7,down,37). plan(8,up,37). plan(9,left,37). plan(10,down,37). plan(11,right,37). plan(12,left,37). plan(13,left,37). plan(14,left,37). plan(15,up,37). occurs(object(robot,1),action(move,(0,0)),2). occurs(object(robot,1),action(move,(0,0)),3). occurs(object(robot,1),action(move,(0,0)),4). occurs(object(robot,1),action(move,(0,0)),13). occurs(object(robot,1),action(move,(0,0)),16). occurs(object(robot,1),action(move,(0,0)),22). occurs(object(robot,1),action(move,(0,0)),24). occurs(object(robot,1),action(move,(0,0)),30). occurs(object(robot,1),action(move,(0,0)),32). occurs(object(robot,2),action(move,(0,0)),3). occurs(object(robot,2),action(move,(0,0)),4). occurs(object(robot,2),action(move,(0,0)),13). occurs(object(robot,2),action(move,(0,0)),16). occurs(object(robot,2),action(move,(0,0)),30). occurs(object(robot,3),action(move,(0,0)),5). occurs(object(robot,3),action(move,(0,0)),12). occurs(object(robot,3),action(move,(0,0)),15). occurs(object(robot,3),action(move,(0,0)),17). occurs(object(robot,3),action(move,(0,0)),30). occurs(object(robot,4),action(move,(0,0)),0). occurs(object(robot,4),action(move,(0,0)),4). occurs(object(robot,4),action(move,(0,0)),7). occurs(object(robot,4),action(move,(0,0)),12). occurs(object(robot,4),action(move,(0,0)),15). occurs(object(robot,4),action(move,(0,0)),17). occurs(object(robot,5),action(move,(0,0)),4). occurs(object(robot,5),action(move,(0,0)),8). occurs(object(robot,5),action(move,(0,0)),12). occurs(object(robot,5),action(move,(0,0)),23). occurs(object(robot,5),action(move,(0,0)),24). occurs(object(robot,5),action(move,(0,0)),25). occurs(object(robot,5),action(move,(0,0)),30). occurs(object(robot,6),action(move,(0,0)),10). occurs(object(robot,6),action(move,(0,0)),27). occurs(object(robot,7),action(move,(0,0)),19). occurs(object(robot,7),action(move,(0,0)),20). occurs(object(robot,7),action(move,(0,0)),21). occurs(object(robot,7),action(move,(0,0)),22). occurs(object(robot,7),action(move,(0,0)),23). occurs(object(robot,7),action(move,(0,0)),24). occurs(object(robot,8),action(move,(0,0)),7). occurs(object(robot,8),action(move,(0,0)),12). occurs(object(robot,8),action(move,(0,0)),23). occurs(object(robot,8),action(move,(0,0)),24). occurs(object(robot,8),action(move,(0,0)),25). occurs(object(robot,9),action(move,(0,0)),3). occurs(object(robot,9),action(move,(0,0)),5). occurs(object(robot,9),action(move,(0,0)),8). occurs(object(robot,9),action(move,(0,0)),11). occurs(object(robot,9),action(move,(0,0)),17). occurs(object(robot,10),action(move,(0,0)),0). occurs(object(robot,10),action(move,(0,0)),8). occurs(object(robot,10),action(move,(0,0)),9). occurs(object(robot,10),action(move,(0,0)),10). occurs(object(robot,10),action(move,(0,0)),11). occurs(object(robot,10),action(move,(0,0)),12). occurs(object(robot,10),action(move,(0,0)),21). occurs(object(robot,10),action(move,(0,0)),23). occurs(object(robot,10),action(move,(0,0)),27). occurs(object(robot,10),action(move,(0,0)),29). occurs(object(robot,10),action(move,(0,0)),34). occurs(object(robot,11),action(move,(0,0)),0). occurs(object(robot,11),action(move,(0,0)),1). occurs(object(robot,11),action(move,(0,0)),5). occurs(object(robot,11),action(move,(0,0)),11). occurs(object(robot,11),action(move,(0,0)),12). occurs(object(robot,11),action(move,(0,0)),19). occurs(object(robot,11),action(move,(0,0)),23). occurs(object(robot,11),action(move,(0,0)),30). occurs(object(robot,11),action(move,(0,0)),34). occurs(object(robot,11),action(move,(0,0)),35). occurs(object(robot,11),action(move,(0,0)),36). occurs(object(robot,12),action(move,(0,0)),19). occurs(object(robot,12),action(move,(0,0)),20). occurs(object(robot,12),action(move,(0,0)),21). occurs(object(robot,12),action(move,(0,0)),24). occurs(object(robot,13),action(move,(0,0)),7). occurs(object(robot,13),action(move,(0,0)),8). occurs(object(robot,13),action(move,(0,0)),19). occurs(object(robot,13),action(move,(0,0)),27). occurs(object(robot,13),action(move,(0,0)),29). occurs(object(robot,13),action(move,(0,0)),31). occurs(object(robot,13),action(move,(0,0)),32). occurs(object(robot,14),action(move,(0,0)),3). occurs(object(robot,14),action(move,(0,0)),6). occurs(object(robot,14),action(move,(0,0)),19). occurs(object(robot,14),action(move,(0,0)),20). occurs(object(robot,14),action(move,(0,0)),24). occurs(object(robot,14),action(move,(0,0)),28). occurs(object(robot,15),action(move,(0,0)),3). occurs(object(robot,15),action(move,(0,0)),7). occurs(object(robot,15),action(move,(0,0)),8). occurs(object(robot,15),action(move,(0,0)),9). occurs(object(robot,15),action(move,(0,0)),10). occurs(object(robot,15),action(move,(0,0)),11). occurs(object(robot,15),action(move,(0,0)),12). occurs(object(robot,15),action(move,(0,0)),13). occurs(object(robot,15),action(move,(0,0)),14). occurs(object(robot,15),action(move,(0,0)),35). occurs(object(robot,15),action(move,(0,0)),36). occurs(object(robot,1),action(move,(0,-1)),6). occurs(object(robot,1),action(move,(0,-1)),7). occurs(object(robot,1),action(move,(0,-1)),8). occurs(object(robot,1),action(move,(0,-1)),14). occurs(object(robot,1),action(move,(0,-1)),17). occurs(object(robot,1),action(move,(0,-1)),18). occurs(object(robot,1),action(move,(0,-1)),19). occurs(object(robot,1),action(move,(0,-1)),20). occurs(object(robot,1),action(move,(0,-1)),21). occurs(object(robot,1),action(move,(0,-1)),25). occurs(object(robot,1),action(move,(0,-1)),26). occurs(object(robot,1),action(move,(0,-1)),31). occurs(object(robot,2),action(move,(0,-1)),5). occurs(object(robot,2),action(move,(0,-1)),6). occurs(object(robot,2),action(move,(0,-1)),7). occurs(object(robot,2),action(move,(0,-1)),10). occurs(object(robot,2),action(move,(0,-1)),14). occurs(object(robot,2),action(move,(0,-1)),17). occurs(object(robot,2),action(move,(0,-1)),20). occurs(object(robot,2),action(move,(0,-1)),21). occurs(object(robot,2),action(move,(0,-1)),23). occurs(object(robot,2),action(move,(0,-1)),24). occurs(object(robot,2),action(move,(0,-1)),26). occurs(object(robot,2),action(move,(0,-1)),27). occurs(object(robot,2),action(move,(0,-1)),35). occurs(object(robot,3),action(move,(0,-1)),7). occurs(object(robot,3),action(move,(0,-1)),10). occurs(object(robot,3),action(move,(0,-1)),19). occurs(object(robot,3),action(move,(0,-1)),20). occurs(object(robot,3),action(move,(0,-1)),23). occurs(object(robot,3),action(move,(0,-1)),24). occurs(object(robot,3),action(move,(0,-1)),25). occurs(object(robot,3),action(move,(0,-1)),27). occurs(object(robot,3),action(move,(0,-1)),28). occurs(object(robot,3),action(move,(0,-1)),35). occurs(object(robot,4),action(move,(0,-1)),2). occurs(object(robot,4),action(move,(0,-1)),8). occurs(object(robot,4),action(move,(0,-1)),11). occurs(object(robot,4),action(move,(0,-1)),20). occurs(object(robot,4),action(move,(0,-1)),21). occurs(object(robot,4),action(move,(0,-1)),24). occurs(object(robot,4),action(move,(0,-1)),25). occurs(object(robot,4),action(move,(0,-1)),26). occurs(object(robot,4),action(move,(0,-1)),28). occurs(object(robot,4),action(move,(0,-1)),29). occurs(object(robot,4),action(move,(0,-1)),30). occurs(object(robot,4),action(move,(0,-1)),36). occurs(object(robot,5),action(move,(0,-1)),2). occurs(object(robot,5),action(move,(0,-1)),3). occurs(object(robot,5),action(move,(0,-1)),26). occurs(object(robot,5),action(move,(0,-1)),27). occurs(object(robot,5),action(move,(0,-1)),31). occurs(object(robot,5),action(move,(0,-1)),32). occurs(object(robot,5),action(move,(0,-1)),33). occurs(object(robot,6),action(move,(0,-1)),1). occurs(object(robot,6),action(move,(0,-1)),5). occurs(object(robot,6),action(move,(0,-1)),11). occurs(object(robot,6),action(move,(0,-1)),15). occurs(object(robot,6),action(move,(0,-1)),19). occurs(object(robot,6),action(move,(0,-1)),20). occurs(object(robot,6),action(move,(0,-1)),21). occurs(object(robot,6),action(move,(0,-1)),22). occurs(object(robot,6),action(move,(0,-1)),24). occurs(object(robot,6),action(move,(0,-1)),28). occurs(object(robot,6),action(move,(0,-1)),29). occurs(object(robot,6),action(move,(0,-1)),31). occurs(object(robot,6),action(move,(0,-1)),37). occurs(object(robot,7),action(move,(0,-1)),3). occurs(object(robot,7),action(move,(0,-1)),26). occurs(object(robot,7),action(move,(0,-1)),29). occurs(object(robot,7),action(move,(0,-1)),35). occurs(object(robot,7),action(move,(0,-1)),37). occurs(object(robot,8),action(move,(0,-1)),0). occurs(object(robot,8),action(move,(0,-1)),5). occurs(object(robot,8),action(move,(0,-1)),6). occurs(object(robot,8),action(move,(0,-1)),19). occurs(object(robot,8),action(move,(0,-1)),26). occurs(object(robot,8),action(move,(0,-1)),33). occurs(object(robot,9),action(move,(0,-1)),0). occurs(object(robot,9),action(move,(0,-1)),6). occurs(object(robot,9),action(move,(0,-1)),14). occurs(object(robot,9),action(move,(0,-1)),21). occurs(object(robot,9),action(move,(0,-1)),22). occurs(object(robot,9),action(move,(0,-1)),25). occurs(object(robot,9),action(move,(0,-1)),26). occurs(object(robot,9),action(move,(0,-1)),27). occurs(object(robot,9),action(move,(0,-1)),29). occurs(object(robot,9),action(move,(0,-1)),30). occurs(object(robot,10),action(move,(0,-1)),1). occurs(object(robot,10),action(move,(0,-1)),5). occurs(object(robot,10),action(move,(0,-1)),6). occurs(object(robot,10),action(move,(0,-1)),7). occurs(object(robot,10),action(move,(0,-1)),14). occurs(object(robot,10),action(move,(0,-1)),18). occurs(object(robot,10),action(move,(0,-1)),19). occurs(object(robot,10),action(move,(0,-1)),30). occurs(object(robot,10),action(move,(0,-1)),33). occurs(object(robot,10),action(move,(0,-1)),36). occurs(object(robot,10),action(move,(0,-1)),37). occurs(object(robot,11),action(move,(0,-1)),7). occurs(object(robot,11),action(move,(0,-1)),8). occurs(object(robot,11),action(move,(0,-1)),10). occurs(object(robot,11),action(move,(0,-1)),14). occurs(object(robot,11),action(move,(0,-1)),16). occurs(object(robot,11),action(move,(0,-1)),22). occurs(object(robot,11),action(move,(0,-1)),25). occurs(object(robot,11),action(move,(0,-1)),27). occurs(object(robot,12),action(move,(0,-1)),0). occurs(object(robot,12),action(move,(0,-1)),2). occurs(object(robot,12),action(move,(0,-1)),3). occurs(object(robot,12),action(move,(0,-1)),4). occurs(object(robot,12),action(move,(0,-1)),22). occurs(object(robot,12),action(move,(0,-1)),25). occurs(object(robot,12),action(move,(0,-1)),26). occurs(object(robot,12),action(move,(0,-1)),28). occurs(object(robot,12),action(move,(0,-1)),32). occurs(object(robot,13),action(move,(0,-1)),3). occurs(object(robot,13),action(move,(0,-1)),5). occurs(object(robot,13),action(move,(0,-1)),13). occurs(object(robot,13),action(move,(0,-1)),20). occurs(object(robot,13),action(move,(0,-1)),22). occurs(object(robot,14),action(move,(0,-1)),1). occurs(object(robot,14),action(move,(0,-1)),2). occurs(object(robot,14),action(move,(0,-1)),8). occurs(object(robot,14),action(move,(0,-1)),15). occurs(object(robot,14),action(move,(0,-1)),26). occurs(object(robot,14),action(move,(0,-1)),29). occurs(object(robot,14),action(move,(0,-1)),30). occurs(object(robot,14),action(move,(0,-1)),31). occurs(object(robot,14),action(move,(0,-1)),36). occurs(object(robot,15),action(move,(0,-1)),5). occurs(object(robot,15),action(move,(0,-1)),6). occurs(object(robot,15),action(move,(0,-1)),22). occurs(object(robot,15),action(move,(0,-1)),23). occurs(object(robot,15),action(move,(0,-1)),26). occurs(object(robot,15),action(move,(0,-1)),27). occurs(object(robot,15),action(move,(0,-1)),28). occurs(object(robot,15),action(move,(0,-1)),30). occurs(object(robot,15),action(move,(0,-1)),31). occurs(object(robot,1),action(move,(-1,0)),0). occurs(object(robot,1),action(move,(-1,0)),5). occurs(object(robot,1),action(move,(-1,0)),23). occurs(object(robot,1),action(move,(-1,0)),27). occurs(object(robot,1),action(move,(-1,0)),28). occurs(object(robot,1),action(move,(-1,0)),29). occurs(object(robot,2),action(move,(-1,0)),18). occurs(object(robot,2),action(move,(-1,0)),25). occurs(object(robot,2),action(move,(-1,0)),28). occurs(object(robot,2),action(move,(-1,0)),29). occurs(object(robot,2),action(move,(-1,0)),31). occurs(object(robot,2),action(move,(-1,0)),37). occurs(object(robot,3),action(move,(-1,0)),6). occurs(object(robot,3),action(move,(-1,0)),8). occurs(object(robot,3),action(move,(-1,0)),26). occurs(object(robot,3),action(move,(-1,0)),29). occurs(object(robot,3),action(move,(-1,0)),31). occurs(object(robot,3),action(move,(-1,0)),32). occurs(object(robot,3),action(move,(-1,0)),36). occurs(object(robot,3),action(move,(-1,0)),37). occurs(object(robot,4),action(move,(-1,0)),5). occurs(object(robot,4),action(move,(-1,0)),27). occurs(object(robot,4),action(move,(-1,0)),32). occurs(object(robot,4),action(move,(-1,0)),34). occurs(object(robot,5),action(move,(-1,0)),17). occurs(object(robot,5),action(move,(-1,0)),18). occurs(object(robot,5),action(move,(-1,0)),28). occurs(object(robot,6),action(move,(-1,0)),3). occurs(object(robot,6),action(move,(-1,0)),4). occurs(object(robot,6),action(move,(-1,0)),6). occurs(object(robot,6),action(move,(-1,0)),7). occurs(object(robot,6),action(move,(-1,0)),14). occurs(object(robot,6),action(move,(-1,0)),18). occurs(object(robot,6),action(move,(-1,0)),35). occurs(object(robot,6),action(move,(-1,0)),36). occurs(object(robot,7),action(move,(-1,0)),13). occurs(object(robot,7),action(move,(-1,0)),14). occurs(object(robot,7),action(move,(-1,0)),25). occurs(object(robot,7),action(move,(-1,0)),27). occurs(object(robot,7),action(move,(-1,0)),28). occurs(object(robot,7),action(move,(-1,0)),30). occurs(object(robot,7),action(move,(-1,0)),31). occurs(object(robot,7),action(move,(-1,0)),33). occurs(object(robot,7),action(move,(-1,0)),34). occurs(object(robot,7),action(move,(-1,0)),36). occurs(object(robot,8),action(move,(-1,0)),16). occurs(object(robot,8),action(move,(-1,0)),17). occurs(object(robot,8),action(move,(-1,0)),27). occurs(object(robot,8),action(move,(-1,0)),28). occurs(object(robot,8),action(move,(-1,0)),31). occurs(object(robot,8),action(move,(-1,0)),32). occurs(object(robot,8),action(move,(-1,0)),34). occurs(object(robot,8),action(move,(-1,0)),35). occurs(object(robot,9),action(move,(-1,0)),7). occurs(object(robot,9),action(move,(-1,0)),28). occurs(object(robot,9),action(move,(-1,0)),31). occurs(object(robot,9),action(move,(-1,0)),32). occurs(object(robot,9),action(move,(-1,0)),33). occurs(object(robot,9),action(move,(-1,0)),35). occurs(object(robot,9),action(move,(-1,0)),36). occurs(object(robot,9),action(move,(-1,0)),37). occurs(object(robot,10),action(move,(-1,0)),22). occurs(object(robot,10),action(move,(-1,0)),25). occurs(object(robot,10),action(move,(-1,0)),26). occurs(object(robot,10),action(move,(-1,0)),32). occurs(object(robot,10),action(move,(-1,0)),35). occurs(object(robot,11),action(move,(-1,0)),6). occurs(object(robot,11),action(move,(-1,0)),26). occurs(object(robot,11),action(move,(-1,0)),33). occurs(object(robot,12),action(move,(-1,0)),14). occurs(object(robot,12),action(move,(-1,0)),15). occurs(object(robot,12),action(move,(-1,0)),30). occurs(object(robot,12),action(move,(-1,0)),31). occurs(object(robot,12),action(move,(-1,0)),33). occurs(object(robot,12),action(move,(-1,0)),34). occurs(object(robot,12),action(move,(-1,0)),36). occurs(object(robot,12),action(move,(-1,0)),37). occurs(object(robot,13),action(move,(-1,0)),9). occurs(object(robot,13),action(move,(-1,0)),11). occurs(object(robot,13),action(move,(-1,0)),12). occurs(object(robot,13),action(move,(-1,0)),14). occurs(object(robot,13),action(move,(-1,0)),24). occurs(object(robot,13),action(move,(-1,0)),28). occurs(object(robot,13),action(move,(-1,0)),30). occurs(object(robot,13),action(move,(-1,0)),34). occurs(object(robot,13),action(move,(-1,0)),37). occurs(object(robot,14),action(move,(-1,0)),0). occurs(object(robot,14),action(move,(-1,0)),5). occurs(object(robot,14),action(move,(-1,0)),7). occurs(object(robot,14),action(move,(-1,0)),11). occurs(object(robot,14),action(move,(-1,0)),13). occurs(object(robot,14),action(move,(-1,0)),18). occurs(object(robot,14),action(move,(-1,0)),25). occurs(object(robot,14),action(move,(-1,0)),34). occurs(object(robot,14),action(move,(-1,0)),35). occurs(object(robot,14),action(move,(-1,0)),37). occurs(object(robot,15),action(move,(-1,0)),4). occurs(object(robot,15),action(move,(-1,0)),29). occurs(object(robot,15),action(move,(-1,0)),32). occurs(object(robot,15),action(move,(-1,0)),33). occurs(object(robot,15),action(move,(-1,0)),34). occurs(object(robot,1),action(move,(0,1)),11). occurs(object(robot,1),action(move,(0,1)),12). occurs(object(robot,1),action(move,(0,1)),15). occurs(object(robot,1),action(move,(0,1)),34). occurs(object(robot,1),action(move,(0,1)),37). occurs(object(robot,2),action(move,(0,1)),2). occurs(object(robot,2),action(move,(0,1)),11). occurs(object(robot,2),action(move,(0,1)),12). occurs(object(robot,2),action(move,(0,1)),15). occurs(object(robot,2),action(move,(0,1)),22). occurs(object(robot,2),action(move,(0,1)),32). occurs(object(robot,2),action(move,(0,1)),33). occurs(object(robot,2),action(move,(0,1)),34). occurs(object(robot,2),action(move,(0,1)),36). occurs(object(robot,3),action(move,(0,1)),0). occurs(object(robot,3),action(move,(0,1)),3). occurs(object(robot,3),action(move,(0,1)),14). occurs(object(robot,3),action(move,(0,1)),33). occurs(object(robot,3),action(move,(0,1)),34). occurs(object(robot,4),action(move,(0,1)),3). occurs(object(robot,4),action(move,(0,1)),16). occurs(object(robot,4),action(move,(0,1)),33). occurs(object(robot,5),action(move,(0,1)),6). occurs(object(robot,5),action(move,(0,1)),10). occurs(object(robot,5),action(move,(0,1)),11). occurs(object(robot,5),action(move,(0,1)),14). occurs(object(robot,5),action(move,(0,1)),15). occurs(object(robot,5),action(move,(0,1)),16). occurs(object(robot,5),action(move,(0,1)),21). occurs(object(robot,5),action(move,(0,1)),22). occurs(object(robot,5),action(move,(0,1)),34). occurs(object(robot,5),action(move,(0,1)),35). occurs(object(robot,5),action(move,(0,1)),36). occurs(object(robot,5),action(move,(0,1)),37). occurs(object(robot,6),action(move,(0,1)),0). occurs(object(robot,6),action(move,(0,1)),2). occurs(object(robot,6),action(move,(0,1)),8). occurs(object(robot,6),action(move,(0,1)),9). occurs(object(robot,6),action(move,(0,1)),12). occurs(object(robot,6),action(move,(0,1)),16). occurs(object(robot,6),action(move,(0,1)),23). occurs(object(robot,6),action(move,(0,1)),25). occurs(object(robot,6),action(move,(0,1)),26). occurs(object(robot,6),action(move,(0,1)),30). occurs(object(robot,6),action(move,(0,1)),32). occurs(object(robot,6),action(move,(0,1)),33). occurs(object(robot,6),action(move,(0,1)),34). occurs(object(robot,7),action(move,(0,1)),7). occurs(object(robot,7),action(move,(0,1)),8). occurs(object(robot,7),action(move,(0,1)),10). occurs(object(robot,7),action(move,(0,1)),11). occurs(object(robot,7),action(move,(0,1)),12). occurs(object(robot,7),action(move,(0,1)),15). occurs(object(robot,7),action(move,(0,1)),16). occurs(object(robot,7),action(move,(0,1)),17). occurs(object(robot,7),action(move,(0,1)),32). occurs(object(robot,8),action(move,(0,1)),4). occurs(object(robot,8),action(move,(0,1)),8). occurs(object(robot,8),action(move,(0,1)),9). occurs(object(robot,8),action(move,(0,1)),10). occurs(object(robot,8),action(move,(0,1)),13). occurs(object(robot,8),action(move,(0,1)),14). occurs(object(robot,8),action(move,(0,1)),15). occurs(object(robot,8),action(move,(0,1)),18). occurs(object(robot,8),action(move,(0,1)),22). occurs(object(robot,8),action(move,(0,1)),29). occurs(object(robot,8),action(move,(0,1)),30). occurs(object(robot,8),action(move,(0,1)),36). occurs(object(robot,8),action(move,(0,1)),37). occurs(object(robot,9),action(move,(0,1)),1). occurs(object(robot,9),action(move,(0,1)),4). occurs(object(robot,9),action(move,(0,1)),10). occurs(object(robot,9),action(move,(0,1)),18). occurs(object(robot,9),action(move,(0,1)),34). occurs(object(robot,10),action(move,(0,1)),4). occurs(object(robot,10),action(move,(0,1)),13). occurs(object(robot,10),action(move,(0,1)),15). occurs(object(robot,10),action(move,(0,1)),16). occurs(object(robot,10),action(move,(0,1)),17). occurs(object(robot,10),action(move,(0,1)),24). occurs(object(robot,10),action(move,(0,1)),28). occurs(object(robot,11),action(move,(0,1)),2). occurs(object(robot,11),action(move,(0,1)),3). occurs(object(robot,11),action(move,(0,1)),9). occurs(object(robot,11),action(move,(0,1)),13). occurs(object(robot,11),action(move,(0,1)),15). occurs(object(robot,11),action(move,(0,1)),17). occurs(object(robot,11),action(move,(0,1)),18). occurs(object(robot,11),action(move,(0,1)),21). occurs(object(robot,11),action(move,(0,1)),24). occurs(object(robot,11),action(move,(0,1)),28). occurs(object(robot,11),action(move,(0,1)),31). occurs(object(robot,11),action(move,(0,1)),32). occurs(object(robot,12),action(move,(0,1)),1). occurs(object(robot,12),action(move,(0,1)),8). occurs(object(robot,12),action(move,(0,1)),9). occurs(object(robot,12),action(move,(0,1)),11). occurs(object(robot,12),action(move,(0,1)),12). occurs(object(robot,12),action(move,(0,1)),13). occurs(object(robot,12),action(move,(0,1)),16). occurs(object(robot,12),action(move,(0,1)),17). occurs(object(robot,12),action(move,(0,1)),18). occurs(object(robot,12),action(move,(0,1)),23). occurs(object(robot,12),action(move,(0,1)),27). occurs(object(robot,12),action(move,(0,1)),29). occurs(object(robot,12),action(move,(0,1)),35). occurs(object(robot,13),action(move,(0,1)),0). occurs(object(robot,13),action(move,(0,1)),4). occurs(object(robot,13),action(move,(0,1)),10). occurs(object(robot,13),action(move,(0,1)),15). occurs(object(robot,13),action(move,(0,1)),16). occurs(object(robot,13),action(move,(0,1)),17). occurs(object(robot,13),action(move,(0,1)),18). occurs(object(robot,13),action(move,(0,1)),21). occurs(object(robot,13),action(move,(0,1)),23). occurs(object(robot,14),action(move,(0,1)),4). occurs(object(robot,14),action(move,(0,1)),9). occurs(object(robot,14),action(move,(0,1)),10). occurs(object(robot,14),action(move,(0,1)),22). occurs(object(robot,14),action(move,(0,1)),27). occurs(object(robot,14),action(move,(0,1)),32). occurs(object(robot,14),action(move,(0,1)),33). occurs(object(robot,15),action(move,(0,1)),0). occurs(object(robot,15),action(move,(0,1)),1). occurs(object(robot,15),action(move,(0,1)),15). occurs(object(robot,15),action(move,(0,1)),16). occurs(object(robot,15),action(move,(0,1)),19). occurs(object(robot,15),action(move,(0,1)),37). occurs(object(robot,1),action(move,(1,0)),1). occurs(object(robot,1),action(move,(1,0)),9). occurs(object(robot,1),action(move,(1,0)),10). occurs(object(robot,1),action(move,(1,0)),33). occurs(object(robot,1),action(move,(1,0)),35). occurs(object(robot,1),action(move,(1,0)),36). occurs(object(robot,2),action(move,(1,0)),0). occurs(object(robot,2),action(move,(1,0)),1). occurs(object(robot,2),action(move,(1,0)),8). occurs(object(robot,2),action(move,(1,0)),9). occurs(object(robot,2),action(move,(1,0)),19). occurs(object(robot,3),action(move,(1,0)),1). occurs(object(robot,3),action(move,(1,0)),2). occurs(object(robot,3),action(move,(1,0)),4). occurs(object(robot,3),action(move,(1,0)),9). occurs(object(robot,3),action(move,(1,0)),11). occurs(object(robot,3),action(move,(1,0)),13). occurs(object(robot,3),action(move,(1,0)),16). occurs(object(robot,3),action(move,(1,0)),18). occurs(object(robot,3),action(move,(1,0)),21). occurs(object(robot,3),action(move,(1,0)),22). occurs(object(robot,4),action(move,(1,0)),1). occurs(object(robot,4),action(move,(1,0)),6). occurs(object(robot,4),action(move,(1,0)),9). occurs(object(robot,4),action(move,(1,0)),10). occurs(object(robot,4),action(move,(1,0)),13). occurs(object(robot,4),action(move,(1,0)),14). occurs(object(robot,4),action(move,(1,0)),18). occurs(object(robot,4),action(move,(1,0)),19). occurs(object(robot,4),action(move,(1,0)),22). occurs(object(robot,4),action(move,(1,0)),23). occurs(object(robot,4),action(move,(1,0)),31). occurs(object(robot,4),action(move,(1,0)),35). occurs(object(robot,4),action(move,(1,0)),37). occurs(object(robot,5),action(move,(1,0)),0). occurs(object(robot,5),action(move,(1,0)),1). occurs(object(robot,5),action(move,(1,0)),5). occurs(object(robot,5),action(move,(1,0)),7). occurs(object(robot,5),action(move,(1,0)),9). occurs(object(robot,5),action(move,(1,0)),13). occurs(object(robot,5),action(move,(1,0)),19). occurs(object(robot,5),action(move,(1,0)),20). occurs(object(robot,5),action(move,(1,0)),29). occurs(object(robot,6),action(move,(1,0)),13). occurs(object(robot,6),action(move,(1,0)),17). occurs(object(robot,7),action(move,(1,0)),0). occurs(object(robot,7),action(move,(1,0)),1). occurs(object(robot,7),action(move,(1,0)),2). occurs(object(robot,7),action(move,(1,0)),4). occurs(object(robot,7),action(move,(1,0)),5). occurs(object(robot,7),action(move,(1,0)),6). occurs(object(robot,7),action(move,(1,0)),9). occurs(object(robot,7),action(move,(1,0)),18). occurs(object(robot,8),action(move,(1,0)),1). occurs(object(robot,8),action(move,(1,0)),2). occurs(object(robot,8),action(move,(1,0)),3). occurs(object(robot,8),action(move,(1,0)),11). occurs(object(robot,8),action(move,(1,0)),20). occurs(object(robot,8),action(move,(1,0)),21). occurs(object(robot,9),action(move,(1,0)),2). occurs(object(robot,9),action(move,(1,0)),9). occurs(object(robot,9),action(move,(1,0)),12). occurs(object(robot,9),action(move,(1,0)),13). occurs(object(robot,9),action(move,(1,0)),15). occurs(object(robot,9),action(move,(1,0)),16). occurs(object(robot,9),action(move,(1,0)),19). occurs(object(robot,9),action(move,(1,0)),20). occurs(object(robot,9),action(move,(1,0)),23). occurs(object(robot,9),action(move,(1,0)),24). occurs(object(robot,10),action(move,(1,0)),2). occurs(object(robot,10),action(move,(1,0)),3). occurs(object(robot,10),action(move,(1,0)),20). occurs(object(robot,10),action(move,(1,0)),31). occurs(object(robot,11),action(move,(1,0)),4). occurs(object(robot,11),action(move,(1,0)),20). occurs(object(robot,11),action(move,(1,0)),29). occurs(object(robot,11),action(move,(1,0)),37). occurs(object(robot,12),action(move,(1,0)),5). occurs(object(robot,12),action(move,(1,0)),6). occurs(object(robot,12),action(move,(1,0)),7). occurs(object(robot,12),action(move,(1,0)),10). occurs(object(robot,13),action(move,(1,0)),1). occurs(object(robot,13),action(move,(1,0)),2). occurs(object(robot,13),action(move,(1,0)),6). occurs(object(robot,13),action(move,(1,0)),25). occurs(object(robot,13),action(move,(1,0)),26). occurs(object(robot,13),action(move,(1,0)),33). occurs(object(robot,13),action(move,(1,0)),35). occurs(object(robot,13),action(move,(1,0)),36). occurs(object(robot,14),action(move,(1,0)),12). occurs(object(robot,14),action(move,(1,0)),14). occurs(object(robot,14),action(move,(1,0)),16). occurs(object(robot,14),action(move,(1,0)),17). occurs(object(robot,14),action(move,(1,0)),21). occurs(object(robot,14),action(move,(1,0)),23). occurs(object(robot,15),action(move,(1,0)),2). occurs(object(robot,15),action(move,(1,0)),17). occurs(object(robot,15),action(move,(1,0)),18). occurs(object(robot,15),action(move,(1,0)),20). occurs(object(robot,15),action(move,(1,0)),21). occurs(object(robot,15),action(move,(1,0)),24). occurs(object(robot,15),action(move,(1,0)),25).
%COST 10
% 
% Models         : 1+
%   Optimum      : unknown
% Optimization   : 10
% Calls          : 1
% Time           : 82.753s (Solving: 81.77s 1st Model: 81.77s Unsat: 0.00s)
% CPU Time       : 82.719s
